\ LP format - for model browsing. Use MPS format to capture full model detail.
Minimize
  - 4.198407 x1 - 0.71201 x2 + 2241.61 Constant
Subject To
 c1: x1 + 0.66666666666667 x2 <= 708
 c2: 0.1 x1 + 0.25 x2 <= 135
Bounds
 Constant = 1
End
